============================[ Problem Statistics ]=============================|                                                                             ||  Number of variables:          4242                                         ||  Number of clauses:            9882                                         ||  Parse time:                   0.29 s                                       ||                                                                             |============================[ Search Statistics ]==============================| Conflicts |          ORIGINAL         |          LEARNT          | Progress ||           |    Vars  Clauses Literals |    Limit  Clauses Lit/Cl |          |===============================================================================|       100 |    1591     6087   431818 |     2231      100     53 | 62.501 % |===============================================================================restarts              : 2conflicts             : 165            (373 /sec)decisions             : 334            (0.00 % random) (756 /sec)propagations          : 9988           (22597 /sec)conflict literals     : 11018          (95.32 % deleted)CPU time              : 0.442 sSATISFIABLE